data;
param n:=100;
param w:=1 139 2 -504 3 -277 4 383 5 126 6 160 7 -385 8 389 9 307 10 -338 11 105 12 165 13 -262 14 323 15 -294 16 -421 17 419 18 -229 19 19 20 -403 21 -105 22 50 23 139 24 -379 25 33 26 -197 27 480 28 -376 29 -110 30 469 31 312 32 16 33 227 34 308 35 103 36 -392 37 -84 38 178 39 -21 40 -448 41 236 42 50 43 -33 44 447 45 27 46 -407 47 58 48 430 49 -248 50 -232 51 -324 52 -318 53 152 54 53 55 -464 56 -270 57 167 58 95 59 243 60 -396 61 -449 62 479 63 -428 64 458 65 -385 66 -164 67 -112 68 471 69 -79 70 463 71 150 72 -473 73 -15 74 425 75 408 76 134 77 50 78 115 79 -237 80 317 81 364 82 92 83 -464 84 156 85 -237 86 -78 87 206 88 289 89 335 90 -319 91 -315 92 152 93 -266 94 -449 95 289 96 242 97 -498 98 290 99 -147 100 339;
